COLUMNS

passenger_count
pickup_ID
dropoff_ID
request_time_sec
pickup_district
dropoff_district
LDuals
IDuals
vehicle_ID
pick_position
drop_position

REQUESTS_INFO
1      499       421       31081     52        168       197       197       37        1         2         
2      745       691       31160     290       131       147       147       62        1         2         
1      310       679       31134     127       290       184       184       69        1         3         
1      693       556       31159     280       199       99        99        109       1         2         
3      948       9         31053     290       98        309       309       110       1         2         
3      325       548       31157     299       52        159       159       242       1         2         
2      312       488       31119     87        199       183       183       244       1         2         
1      314       35        31116     119       98        210       210       277       1         4         
2      314       357       31105     119       277       221       221       277       2         3         
2      292       353       31105     87        119       187       187       285       1         2         
3      527       395       31154     52        100       146       146       290       1         2         
3      297       459       31166     277       189       184       184       297       1         2         
1      906       768       31107     290       290       215       215       322       1         2         
1      595       727       31158     131       290       111       111       361       1         3         
2      372       555       31114     119       199       130       130       371       1         2         
2      790       604       31120     290       189       173       173       378       1         3         
4      772       651       31119     290       189       166       166       403       1         2         
1      364       152       31095     299       9         255       255       432       1         3         
1      328       461       31159     299       189       164       164       450       1         3         
1      772       333       31075     290       119       210       210       471       1         2         
1      938       647       31136     291       280       210       210       519       1         2         
3      527       395       31154     52        100       146       146       526       1         2         
1      1106      923       31015     291       290       337       337       567       1         2         
2      200       35        31161     87        98        112       112       572       1         2         
1      455       556       31168     52        199       121       121       614       1         2         
3      232       532       31164     266       199       139       139       688       1         3         
3      927       768       31114     290       290       225       225       699       1         3         
1      680       1218      31141     290       84        172       172       705       1         3         
2      905       1015      31153     290       84        171       171       734       1         2         
1      873       603       31110     291       189       148       148       737       1         3         
1      861       881       31133     290       290       184       184       738       1         3         
3      836       1016      31107     290       84        200       200       755       1         2         
4      915       1012      31163     291       84        191       191       771       1         2         
3      826       970       31126     291       290       203       203       794       1         2         
2      875       139       30940     291       57        436       436       806       1         2         
1      512       841       31169     199       290       101       101       836       1         3         
1      936       923       31155     291       290       161       161       845       1         3         
2      926       717       31128     290       189       199       199       861       1         4         
3      1001      452       31148     291       52        210       210       875       1         3         
1      926       1032      31116     290       84        214       214       876       1         2         
1      662       545       31142     131       52        161       161       880       1         2         
1      842       1015      31104     290       84        171       171       888       1         2         
1      925       923       31075     290       290       261       261       902       1         2         
1      1151      1250      31167     291       129       149       149       948       1         2         
1      916       694       31099     291       189       223       223       961       1         4         
1      926       19        31147     290       98        180       180       969       1         4         
3      369       432       31126     52        52        154       154       978       1         2         
1      789       604       31160     290       189       115       115       992       1         3         
1      983       907       31156     291       290       208       208       1002      1         2         
1      1131      1023      31147     291       291       161       161       1011      1         2         
1      1151      654       31086     291       189       230       230       1036      1         2         
1      248       458       31155     266       52        118       118       1063      1         2         
2      235       295       31084     87        87        185       185       1090      1         2         
1      1027      650       31164     50        189       155       155       1092      1         2         
1      983       134       31162     291       9         161       161       1103      1         3         
1      950       991       31146     290       290       176       176       1116      1         3         
2      440       737       31141     168       189       144       144       1122      1         3         
2      731       938       31153     131       291       163       163       1140      1         2         
4      989       97        31128     50        9         220       220       1145      1         2         
3      945       782       31109     50        291       232       232       1149      1         2         
1      600       760       31163     280       291       125       125       1184      1         4         
3      571       719       31152     52        189       132       132       1235      1         3         
1      333       231       31111     119       266       198       198       1244      1         3         
1      466       81        31168     199       98        119       119       1281      1         3         
1      1000      720       31151     291       290       194       194       1284      1         4         
2      961       824       31154     291       291       206       206       1286      1         3         
2      1086      719       31167     291       189       132       132       1354      1         4         
1      313       134       31165     87        9         177       177       1390      1         2         
1      794       829       31142     290       50        143       143       1404      1         3         
3      745       691       31160     290       131       147       147       1734      1         3         
2      723       1236      31155     290       84        122       122       1738      1         3         
1      352       771       31142     119       290       154       154       1773      1         4         
1      439       600       31160     189       280       131       131       1862      1         2         
1      512       720       31145     199       290       125       125       1894      1         3         
3      508       235       31160     199       87        116       116       1904      1         2         
1      304       232       31123     299       266       151       151       1951      1         3         
1      801       915       31148     291       291       143       143       1956      1         3         
3      936       875       31169     291       291       177       177       1971      1         3         
3      1001      452       31148     291       52        210       210       1973      1         3         
1      118       232       31169     286       266       112       112       1984      1         2         
2      1169      1229      31170     291       129       0         0         0         0         0         
1      356       79        31170     119       98        0         0         0         0         0         
1      842       727       31170     290       290       0         0         0         0         0         
2      1127      740       31170     291       50        0         0         0         0         0         
1      924       949       31170     290       290       0         0         0         0         0         
1      925       984       31170     290       291       0         0         0         0         0         
2      137       526       31171     286       52        0         0         0         0         0         
1      772       604       31171     290       189       0         0         0         0         0         
1      379       536       31171     999       189       0         0         0         0         0         
1      1001      881       31171     291       290       0         0         0         0         0         
3      852       746       31171     291       290       0         0         0         0         0         
2      481       651       31171     189       189       0         0         0         0         0         
3      481       651       31171     189       189       0         0         0         0         0         
2      852       746       31171     291       290       0         0         0         0         0         
2      458       717       31171     52        189       0         0         0         0         0         
2      715       732       31171     131       131       0         0         0         0         0         
1      573       748       31171     189       290       0         0         0         0         0         
1      216       605       31172     178       189       0         0         0         0         0         
1      557       748       31172     189       290       0         0         0         0         0         
2      1168      916       31172     291       291       0         0         0         0         0         
2      826       1128      31172     291       291       0         0         0         0         0         
1      721       723       31173     290       290       0         0         0         0         0         
1      882       969       31174     290       290       0         0         0         0         0         
1      870       696       31174     291       189       0         0         0         0         0         
1      1031      859       31174     50        290       0         0         0         0         0         
1      922       719       31174     50        189       0         0         0         0         0         
3      836       628       31175     290       189       0         0         0         0         0         
3      836       628       31175     290       189       0         0         0         0         0         
2      719       116       31175     189       9         0         0         0         0         0         
1      251       189       31175     127       286       0         0         0         0         0         
1      273       208       31175     206       286       0         0         0         0         0         
1      914       759       31175     291       131       0         0         0         0         0         
1      213       408       31176     266       299       0         0         0         0         0         
1      545       619       31176     52        131       0         0         0         0         0         
1      603       559       31176     189       189       0         0         0         0         0         
1      48        357       31176     98        277       0         0         0         0         0         
1      768       578       31176     290       189       0         0         0         0         0         
1      805       783       31176     291       50        0         0         0         0         0         
1      894       1517      31176     291       296       0         0         0         0         0         
1      722       551       31176     290       189       0         0         0         0         0         
1      700       813       31176     290       290       0         0         0         0         0         
1      419       351       31176     168       52        0         0         0         0         0         
3      583       1048      31176     189       291       0         0         0         0         0         
2      583       1048      31176     189       291       0         0         0         0         0         
2      527       602       31176     52        189       0         0         0         0         0         
1      961       968       31177     291       290       0         0         0         0         0         
1      389       544       31177     299       52        0         0         0         0         0         
1      643       557       31177     131       189       0         0         0         0         0         
2      180       647       31177     178       280       0         0         0         0         0         
1      673       483       31177     189       189       0         0         0         0         0         
1      509       829       31178     199       50        0         0         0         0         0         
1      727       669       31178     290       280       0         0         0         0         0         
1      745       905       31178     290       290       0         0         0         0         0         
1      417       331       31178     100       127       0         0         0         0         0         
1      60        136       31178     9         286       0         0         0         0         0         
2      849       680       31179     291       290       0         0         0         0         0         
1      749       675       31179     290       189       0         0         0         0         0         
1      1295      1295      31179     999       999       0         0         0         0         0         
3      356       418       31179     119       168       0         0         0         0         0         
1      1022      650       31179     291       189       0         0         0         0         0         
2      193       269       31179     266       127       0         0         0         0         0         
1      274       411       31179     87        52        0         0         0         0         0         
1      690       556       31180     131       199       0         0         0         0         0         
1      485       182       31180     189       178       0         0         0         0         0         
1      609       557       31180     189       189       0         0         0         0         0         
1      905       723       31180     290       290       0         0         0         0         0         
1      700       748       31180     290       290       0         0         0         0         0         
1      991       905       31181     290       290       0         0         0         0         0         
3      1106      1022      31181     291       291       0         0         0         0         0         
1      677       331       31181     189       127       0         0         0         0         0         
1      414       414       31181     100       100       0         0         0         0         0         
1      1217      1428      31181     84        999       0         0         0         0         0         
1      814       969       31181     290       290       0         0         0         0         0         
1      873       670       31181     291       280       0         0         0         0         0         
1      691       627       31181     131       189       0         0         0         0         0         
1      275       603       31181     87        189       0         0         0         0         0         
1      679       742       31181     290       290       0         0         0         0         0         
2      287       537       31182     299       189       0         0         0         0         0         
1      663       545       31182     131       52        0         0         0         0         0         
1      551       626       31182     189       189       0         0         0         0         0         
1      534       535       31182     199       189       0         0         0         0         0         
1      556       35        31182     199       98        0         0         0         0         0         
1      349       463       31183     127       168       0         0         0         0         0         
1      834       990       31183     290       290       0         0         0         0         0         
1      392       527       31183     52        52        0         0         0         0         0         
1      106       170       31183     178       286       0         0         0         0         0         
1      34        386       31183     98        299       0         0         0         0         0         
1      557       505       31184     189       52        0         0         0         0         0         
1      818       678       31184     290       290       0         0         0         0         0         
1      512       549       31184     199       52        0         0         0         0         0         
1      884       969       31184     290       290       0         0         0         0         0         
1      310       171       31184     127       286       0         0         0         0         0         
1      347       350       31185     299       127       0         0         0         0         0         
2      549       651       31185     52        189       0         0         0         0         0         
2      778       1011      31185     131       84        0         0         0         0         0         
1      642       506       31185     131       189       0         0         0         0         0         
3      703       558       31186     290       189       0         0         0         0         0         
2      703       558       31186     290       189       0         0         0         0         0         
1      217       789       31186     87        290       0         0         0         0         0         
1      70        47        31186     999       98        0         0         0         0         0         
1      915       628       31186     291       189       0         0         0         0         0         
1      1489      1074      31186     296       84        0         0         0         0         0         
2      624       690       31186     189       131       0         0         0         0         0         
1      333       368       31187     119       299       0         0         0         0         0         
3      61        520       31187     98        52        0         0         0         0         0         
3      61        520       31187     98        52        0         0         0         0         0         
1      924       32        31187     290       98        0         0         0         0         0         
1      522       556       31187     52        199       0         0         0         0         0         
1      609       651       31187     189       189       0         0         0         0         0         
1      476       331       31187     52        127       0         0         0         0         0         
1      694       527       31187     189       52        0         0         0         0         0         
1      527       462       31187     52        189       0         0         0         0         0         
2      352       698       31187     119       189       0         0         0         0         0         
3      481       884       31188     189       290       0         0         0         0         0         
2      481       884       31188     189       290       0         0         0         0         0         
1      1010      696       31188     290       189       0         0         0         0         0         
1      510       417       31188     199       100       0         0         0         0         0         
1      992       937       31188     290       291       0         0         0         0         0         
1      950       905       31188     290       290       0         0         0         0         0         
1      20        438       31188     98        100       0         0         0         0         0         
1      971       1161      31188     290       84        0         0         0         0         0         
1      183       233       31189     178       206       0         0         0         0         0         
3      698       812       31189     189       290       0         0         0         0         0         
3      698       812       31189     189       290       0         0         0         0         0         
1      801       350       31189     291       127       0         0         0         0         0         
1      782       748       31190     291       290       0         0         0         0         0         
1      772       699       31190     290       290       0         0         0         0         0         
1      133       666       31190     9         131       0         0         0         0         0         
1      304       503       31190     299       52        0         0         0         0         0         
1      116       671       31190     9         280       0         0         0         0         0         
1      1023      749       31190     291       290       0         0         0         0         0         
1      742       947       31190     290       290       0         0         0         0         0         
3      882       812       31191     290       290       0         0         0         0         0         
3      837       232       31191     290       266       0         0         0         0         0         
3      837       232       31191     290       266       0         0         0         0         0         
1      608       654       31191     189       189       0         0         0         0         0         
1      345       247       31191     299       266       0         0         0         0         0         
2      882       812       31191     290       290       0         0         0         0         0         
4      778       606       31191     131       189       0         0         0         0         0         
1      755       30        31191     131       9         0         0         0         0         0         
1      574       507       31191     189       189       0         0         0         0         0         
3      1034      738       31192     84        189       0         0         0         0         0         
1      609       536       31192     189       189       0         0         0         0         0         
1      527       555       31192     52        199       0         0         0         0         0         
1      236       578       31192     87        189       0         0         0         0         0         
1      345       603       31192     299       189       0         0         0         0         0         
1      789       698       31192     290       189       0         0         0         0         0         
1      894       968       31192     291       290       0         0         0         0         0         
1      795       415       31192     290       100       0         0         0         0         0         
3      1034      738       31192     84        189       0         0         0         0         0         
1      66        314       31193     98        119       0         0         0         0         0         
1      656       772       31193     290       290       0         0         0         0         0         
1      969       1243      31193     290       192       0         0         0         0         0         
1      529       457       31193     189       52        0         0         0         0         0         
1      928       1217      31193     290       84        0         0         0         0         0         
1      904       649       31194     290       189       0         0         0         0         0         
1      152       581       31194     9         189       0         0         0         0         0         
1      1128      1282      31194     291       192       0         0         0         0         0         
1      813       10        31194     290       98        0         0         0         0         0         
2      452       553       31194     52        189       0         0         0         0         0         
1      533       176       31194     199       174       0         0         0         0         0         
1      252       417       31194     206       100       0         0         0         0         0         
2      621       648       31194     280       189       0         0         0         0         0         
1      529       98        31194     189       98        0         0         0         0         0         
1      64        138       31194     98        57        0         0         0         0         0         
1      579       765       31195     189       290       0         0         0         0         0         
1      1047      579       31195     291       189       0         0         0         0         0         
1      1235      1137      31195     84        84        0         0         0         0         0         
1      269       462       31195     127       189       0         0         0         0         0         
2      662       1011      31196     131       84        0         0         0         0         0         
1      1025      851       31196     291       291       0         0         0         0         0         
1      1300      1004      31196     192       291       0         0         0         0         0         
1      526       545       31196     52        52        0         0         0         0         0         
1      484       438       31196     189       100       0         0         0         0         0         
2      1048      926       31196     291       290       0         0         0         0         0         
1      950       859       31196     290       290       0         0         0         0         0         
1      902       438       31196     50        100       0         0         0         0         0         
3      304       155       31197     299       286       0         0         0         0         0         
1      250       351       31197     127       52        0         0         0         0         0         
1      348       374       31197     299       119       0         0         0         0         0         
2      292       509       31197     87        199       0         0         0         0         0         
3      304       155       31197     299       286       0         0         0         0         0         
2      700       726       31198     290       290       0         0         0         0         0         
1      584       648       31198     189       189       0         0         0         0         0         
1      396       419       31198     119       168       0         0         0         0         0         
3      700       726       31198     290       290       0         0         0         0         0         
1      1002      722       31198     291       290       0         0         0         0         0         
1      408       544       31198     299       52        0         0         0         0         0         
1      579       624       31198     189       189       0         0         0         0         0         
3      654       462       31198     189       189       0         0         0         0         0         
1      409       328       31198     52        299       0         0         0         0         0         
1      739       604       31198     189       189       0         0         0         0         0         
1      179       513       31199     178       199       0         0         0         0         0         
1      968       1233      31199     290       129       0         0         0         0         0         
1      571       544       31199     52        52        0         0         0         0         0         
1      858       1100      31199     290       84        0         0         0         0         0         
1      533       441       31199     199       168       0         0         0         0         0         
2      605       1032      31199     189       84        0         0         0         0         0         
1      782       627       31199     291       189       0         0         0         0         0         
1      108       399       31199     178       168       0         0         0         0         0         
1      917       804       31199     291       291       0         0         0         0         0         
